* #variable= 91 #constraint= 481 #product= 1133 sizeproduct= 2266
min: -2 x1 x47 +2 x1 -3 x47 +2 x1 x50 -13 x50 -2 x1 x58 -10 x58 -2 x1 x60 -2 x60 +2 x1 x62 -18 x62 +2 x1 x63 -9 x63 +2 x1 x64 +1 x64 +2 x1 x65 -7 x65 +2 x1 x66 -4 x66 +2 x1 x69 -14 x69 -2 x1 x70 +11 x70 -2 x1 x71 -1 x71 -2 x1 x72 +2 x72 -2 x1 x73 -2 x1 x74 +10 x74 -2 x1 x78 -10 x78 -2 x1 x79 +2 x1 x80 -17 x80 -2 x1 x82 -1 x82 -2 x1 x83 +9 x83 +2 x1 x84 -6 x84 -2 x1 x85 -2 x85 -2 x1 x86 +5 x86 +2 x1 x87 -7 x87 +2 x1 x89 -7 x89 +2 x1 x90 -15 x90 -2 x2 x47 -5 x2 +2 x2 x54 -9 x54 +2 x2 x56 -6 x56 -2 x2 x58 -2 x2 x60 +2 x2 x62 +2 x2 x63 +2 x2 x64 +2 x2 x65 +2 x2 x66 +2 x2 x69 +2 x2 x71 +2 x2 x72 -2 x2 x73 -2 x2 x74 +2 x2 x75 -8 x75 +2 x2 x76 -10 x76 +2 x2 x77 -6 x77 -2 x2 x78 -2 x2 x79 +2 x2 x80 -2 x2 x82 -2 x2 x83 -2 x2 x85 -2 x2 x86 +2 x2 x89 +2 x2 x90 +2 x3 x50 +5 x3 -2 x3 x54 -2 x3 x56 +2 x3 x63 -2 x3 x65 -2 x3 x66 -2 x3 x70 -2 x3 x71 -2 x3 x72 -2 x3 x73 -2 x3 x74 -2 x3 x76 -2 x3 x77 +2 x3 x82 +2 x3 x83 +2 x3 x85 +2 x3 x86 -2 x4 x46 +5 x4 +14 x46 -2 x4 x48 +16 x48 +2 x4 x50 -2 x4 x51 +18 x51 -2 x4 x53 +9 x53 -2 x4 x54 -2 x4 x55 +8 x55 -2 x4 x56 -2 x4 x57 +9 x57 -2 x4 x59 +16 x59 +2 x4 x62 +2 x4 x63 -2 x4 x65 -2 x4 x66 +2 x4 x69 -2 x4 x70 -2 x4 x71 -2 x4 x72 -2 x4 x73 -2 x4 x74 -2 x4 x76 -2 x4 x77 +2 x4 x80 +2 x4 x82 +2 x4 x83 +2 x4 x84 +2 x4 x85 +2 x4 x86 +2 x4 x87 +2 x4 x89 +2 x4 x90 -2 x5 x46 -2 x5 x48 -2 x5 x49 +12 x49 -2 x5 x51 -2 x5 x57 -2 x5 x59 +2 x5 x62 +2 x5 x69 +2 x5 x75 +2 x5 x80 +2 x5 x89 +2 x5 x90 +2 x6 x47 -6 x6 +2 x6 x50 +2 x6 x52 -3 x52 +2 x6 x54 +2 x6 x56 +2 x6 x60 +2 x6 x62 +2 x6 x63 -2 x6 x67 -8 x67 +2 x6 x69 -2 x6 x70 -2 x6 x71 -2 x6 x72 -2 x6 x73 -2 x6 x74 -2 x6 x78 +2 x6 x80 -2 x6 x82 +2 x6 x84 -2 x6 x85 +2 x6 x87 +2 x6 x88 +10 x88 +2 x6 x89 +2 x6 x90 +2 x7 x47 -12 x7 +2 x7 x50 +2 x7 x52 +2 x7 x54 +2 x7 x56 +2 x7 x60 +2 x7 x62 +2 x7 x65 +2 x7 x66 -2 x7 x67 +2 x7 x69 +2 x7 x71 +2 x7 x72 -2 x7 x73 +2 x7 x75 +2 x7 x76 +2 x7 x77 -2 x7 x78 +2 x7 x80 -2 x7 x82 -2 x7 x83 -2 x7 x85 -2 x7 x86 +2 x7 x88 +2 x7 x89 +2 x7 x90 -2 x8 x46 +2 x8 -2 x8 x48 +2 x8 x50 -2 x8 x51 +2 x8 x52 -2 x8 x53 +2 x8 x54 -2 x8 x55 -2 x8 x57 +2 x8 x58 -2 x8 x59 +2 x8 x60 +2 x8 x63 +2 x8 x64 +2 x8 x65 +2 x8 x67 +2 x8 x68 +1 x68 -2 x8 x70 -2 x8 x71 -2 x8 x72 -2 x8 x73 -2 x8 x74 -2 x8 x77 -2 x8 x81 +1 x81 +2 x8 x85 +2 x8 x86 -2 x9 x46 -4 x9 -2 x9 x48 -2 x9 x49 +2 x9 x50 -2 x9 x51 +2 x9 x52 +2 x9 x54 -2 x9 x57 +2 x9 x58 -2 x9 x59 +2 x9 x60 +2 x9 x63 +2 x9 x64 +2 x9 x65 +2 x9 x67 +2 x9 x68 +2 x9 x71 +2 x9 x76 -2 x9 x82 -2 x9 x83 -2 x10 x46 +4 x10 -2 x10 x48 -2 x10 x51 -2 x10 x52 -2 x10 x53 -2 x10 x55 -2 x10 x57 -2 x10 x59 -2 x10 x60 +2 x10 x62 -2 x10 x64 -2 x10 x68 +2 x10 x69 +2 x10 x76 +2 x10 x77 +2 x10 x78 +2 x10 x80 -2 x10 x83 +2 x10 x84 -2 x10 x86 +2 x10 x87 -2 x10 x88 +2 x10 x89 +2 x10 x90 -2 x11 x46 +1 x11 -2 x11 x48 -2 x11 x49 -2 x11 x50 -2 x11 x51 -2 x11 x52 +2 x11 x54 +2 x11 x56 -2 x11 x57 -2 x11 x59 -2 x11 x60 +2 x11 x62 -2 x11 x63 -2 x11 x64 +2 x11 x65 +2 x11 x66 -2 x11 x68 +2 x11 x69 +2 x11 x71 +2 x11 x72 +2 x11 x73 +2 x11 x75 +2 x11 x76 +2 x11 x77 +2 x11 x78 +2 x11 x80 -2 x11 x82 -2 x11 x83 -2 x11 x85 -2 x11 x86 -2 x11 x88 +2 x11 x89 +2 x11 x90 +2 x12 x50 -6 x12 -2 x12 x52 -2 x12 x54 +2 x12 x62 +2 x12 x63 -2 x12 x64 -2 x12 x65 +2 x12 x69 -2 x12 x70 -2 x12 x71 -2 x12 x72 -2 x12 x73 -2 x12 x74 +2 x12 x77 +2 x12 x78 +2 x12 x79 +2 x12 x80 +2 x12 x81 +2 x12 x82 +2 x12 x83 +2 x12 x84 +2 x12 x87 +2 x12 x89 +2 x12 x90 -2 x13 x52 -7 x13 +2 x13 x56 +2 x13 x62 -2 x13 x64 +2 x13 x66 +2 x13 x69 -2 x13 x70 +2 x13 x72 +2 x13 x75 +2 x13 x77 +2 x13 x78 +2 x13 x79 +2 x13 x80 -2 x13 x85 -2 x13 x86 +2 x13 x89 +2 x13 x90 -2 x14 x46 +5 x14 -2 x14 x48 +2 x14 x50 -2 x14 x51 -2 x14 x53 -2 x14 x55 -2 x14 x56 -2 x14 x57 -2 x14 x59 +2 x14 x62 +2 x14 x63 -2 x14 x66 +2 x14 x69 -2 x14 x70 -2 x14 x71 -2 x14 x72 -2 x14 x73 -2 x14 x74 -2 x14 x77 +2 x14 x80 -2 x14 x81 +2 x14 x84 +2 x14 x85 +2 x14 x86 +2 x14 x87 +2 x14 x89 +2 x14 x90 -2 x15 x46 -2 x15 -2 x15 x48 -2 x15 x49 -2 x15 x51 +2 x15 x54 -2 x15 x57 -2 x15 x59 +2 x15 x62 +2 x15 x65 +2 x15 x69 +2 x15 x71 +2 x15 x75 +2 x15 x76 +2 x15 x80 -2 x15 x82 -2 x15 x83 +2 x15 x89 +2 x15 x90 -2 x16 x46 -1 x16 -2 x16 x48 +2 x16 x50 -2 x16 x51 +2 x16 x52 -2 x16 x53 +2 x16 x54 -2 x16 x55 +2 x16 x56 -2 x16 x57 +2 x16 x58 -2 x16 x59 +2 x16 x62 +2 x16 x63 +2 x16 x64 +2 x16 x65 +2 x16 x66 +2 x16 x67 +2 x16 x69 -2 x16 x70 -2 x16 x71 -2 x16 x72 -2 x16 x73 -2 x16 x74 -2 x16 x79 +2 x16 x80 -2 x16 x83 +2 x16 x84 -2 x16 x86 +2 x16 x87 -2 x16 x88 +2 x16 x89 +2 x16 x90 -2 x17 x46 -7 x17 -2 x17 x48 -2 x17 x49 +2 x17 x50 -2 x17 x51 +2 x17 x52 +2 x17 x54 +2 x17 x56 -2 x17 x57 +2 x17 x58 -2 x17 x59 +2 x17 x62 +2 x17 x63 +2 x17 x64 +2 x17 x65 +2 x17 x66 +2 x17 x67 +2 x17 x69 +2 x17 x71 +2 x17 x72 -2 x17 x74 +2 x17 x75 +2 x17 x76 +2 x17 x77 -2 x17 x79 +2 x17 x80 -2 x17 x82 -2 x17 x83 -2 x17 x85 -2 x17 x86 -2 x17 x88 +2 x17 x89 +2 x17 x90 +2 x18 x47 +6 x18 -2 x18 x48 -2 x18 x49 -2 x18 x51 -2 x18 x53 -2 x18 x54 -2 x18 x55 -2 x18 x56 +2 x18 x58 +2 x18 x60 -2 x18 x61 +5 x61 -2 x18 x63 -2 x18 x64 -2 x18 x65 -2 x18 x66 -2 x18 x69 -2 x18 x71 -2 x18 x72 +2 x18 x73 +2 x18 x74 -2 x18 x76 -2 x18 x77 +2 x18 x78 +2 x18 x79 +2 x18 x82 +2 x18 x83 +2 x18 x84 +2 x18 x85 +2 x18 x86 +2 x18 x87 -2 x18 x89 -2 x18 x90 +2 x19 x47 -5 x19 +2 x19 x50 +2 x19 x52 +2 x19 x54 +2 x19 x56 +2 x19 x60 +2 x19 x62 -2 x19 x63 -2 x19 x64 -2 x19 x65 -2 x19 x66 -2 x19 x69 +2 x19 x74 +2 x19 x79 +2 x19 x83 +2 x19 x86 -2 x19 x90 -2 x20 x48 +1 x20 -2 x20 x49 +2 x20 x50 -2 x20 x51 +2 x20 x52 -2 x20 x53 +2 x20 x54 -2 x20 x55 +2 x20 x58 +2 x20 x60 -2 x20 x61 -2 x20 x72 +2 x20 x73 +2 x20 x74 -2 x20 x75 -2 x20 x77 +2 x20 x78 +2 x20 x79 -2 x20 x80 -2 x20 x81 +2 x20 x82 +2 x20 x83 -2 x20 x84 +2 x20 x85 +2 x20 x86 -2 x20 x89 -2 x20 x90 +2 x21 x47 +2 x21 -2 x21 x48 -2 x21 x49 -2 x21 x50 -2 x21 x51 -2 x21 x52 -2 x21 x53 -2 x21 x55 +2 x21 x58 -2 x21 x61 -2 x21 x63 -2 x21 x64 -2 x21 x65 -2 x21 x66 -2 x21 x69 +2 x21 x71 +2 x21 x72 +2 x21 x73 +2 x21 x75 +2 x21 x76 +2 x21 x77 +2 x21 x78 +2 x21 x80 +2 x21 x82 +2 x21 x85 -2 x21 x89 +2 x22 x47 -4 x22 -2 x22 x52 -2 x22 x54 +2 x22 x58 +2 x22 x60 -2 x22 x63 -2 x22 x64 -2 x22 x65 -2 x22 x66 -2 x22 x69 -2 x22 x70 -2 x22 x71 +2 x22 x73 +2 x22 x74 +2 x22 x77 +2 x22 x78 +2 x22 x79 +2 x22 x80 +2 x22 x81 +2 x22 x82 +2 x22 x83 +2 x22 x84 +2 x22 x85 +2 x22 x86 -2 x22 x89 -2 x22 x90 +2 x23 x47 +5 x23 -2 x23 x48 -2 x23 x49 -2 x23 x51 -2 x23 x53 -2 x23 x55 -2 x23 x56 +2 x23 x58 +2 x23 x60 -2 x23 x61 -2 x23 x63 -2 x23 x64 -2 x23 x65 -2 x23 x66 -2 x23 x69 -2 x23 x72 +2 x23 x73 +2 x23 x74 -2 x23 x77 +2 x23 x78 +2 x23 x79 -2 x23 x81 +2 x23 x82 +2 x23 x83 +2 x23 x85 +2 x23 x86 +2 x23 x87 -2 x23 x89 -2 x23 x90 -2 x24 x48 -3 x24 -2 x24 x49 +2 x24 x50 -2 x24 x51 +2 x24 x52 -2 x24 x53 +2 x24 x54 -2 x24 x55 +2 x24 x56 +2 x24 x58 -2 x24 x61 +2 x24 x62 +2 x24 x73 +2 x24 x78 +2 x24 x82 +2 x24 x85 -2 x24 x89 +2 x25 x46 -13 x25 +2 x25 x47 +2 x25 x49 +2 x25 x50 +2 x25 x51 +2 x25 x52 +2 x25 x53 +2 x25 x54 +2 x25 x55 +2 x25 x56 +2 x25 x59 +2 x25 x60 +2 x25 x61 +2 x25 x62 +2 x25 x65 +2 x25 x66 -2 x25 x67 +2 x25 x71 +2 x25 x72 -2 x25 x73 +2 x25 x76 +2 x25 x77 -2 x25 x78 -2 x25 x82 -2 x25 x83 -2 x25 x84 -2 x25 x85 -2 x25 x86 -2 x25 x87 +2 x25 x88 +2 x25 x89 -2 x26 x46 -3 x26 -2 x26 x48 +2 x26 x50 +2 x26 x52 +2 x26 x53 +2 x26 x54 +2 x26 x58 +2 x26 x60 -2 x26 x61 +2 x26 x63 +2 x26 x64 +2 x26 x65 +2 x26 x67 +2 x26 x68 +2 x26 x71 -2 x26 x75 +2 x26 x76 -2 x26 x80 -2 x26 x82 -2 x26 x83 -2 x26 x84 -2 x26 x89 -2 x26 x90 -2 x27 x49 +1 x27 -2 x27 x50 -2 x27 x51 -2 x27 x52 +2 x27 x53 +2 x27 x54 +2 x27 x55 +2 x27 x56 -2 x27 x59 -2 x27 x60 -2 x27 x63 -2 x27 x64 +2 x27 x65 +2 x27 x66 -2 x27 x68 +2 x27 x71 +2 x27 x72 +2 x27 x73 +2 x27 x75 +2 x27 x76 +2 x27 x77 +2 x27 x78 +2 x27 x80 -2 x27 x82 -2 x27 x83 -2 x27 x84 -2 x27 x85 -2 x27 x86 -2 x27 x87 -2 x27 x88 +2 x27 x90 +2 x28 x46 -8 x28 +2 x28 x48 +2 x28 x49 -2 x28 x52 +2 x28 x55 +2 x28 x56 +2 x28 x57 +2 x28 x59 +2 x28 x61 -2 x28 x64 +2 x28 x66 -2 x28 x70 +2 x28 x72 +2 x28 x77 +2 x28 x78 +2 x28 x79 +2 x28 x80 -2 x28 x85 -2 x28 x86 -2 x28 x87 +2 x29 x53 -2 x29 +2 x29 x54 +2 x29 x65 +2 x29 x71 +2 x29 x76 -2 x29 x82 -2 x29 x83 -2 x29 x84 -2 x30 x46 -7 x30 -2 x30 x48 +2 x30 x50 +2 x30 x52 +2 x30 x53 +2 x30 x54 +2 x30 x55 +2 x30 x56 +2 x30 x58 -2 x30 x59 +2 x30 x62 +2 x30 x63 +2 x30 x64 +2 x30 x65 +2 x30 x66 +2 x30 x67 +2 x30 x69 +2 x30 x71 +2 x30 x72 -2 x30 x74 +2 x30 x76 +2 x30 x77 -2 x30 x79 -2 x30 x82 -2 x30 x83 -2 x30 x84 -2 x30 x85 -2 x30 x86 -2 x30 x87 -2 x30 x88 +2 x30 x90 -2 x31 x46 +6 x31 -2 x31 x49 -2 x31 x51 -2 x31 x53 -2 x31 x55 -2 x31 x59 -2 x31 x61 +2 x31 x63 +2 x31 x64 +2 x31 x65 +2 x31 x67 +2 x31 x68 -2 x31 x72 +2 x31 x73 -2 x31 x75 -2 x31 x77 +2 x31 x78 -2 x31 x80 -2 x31 x81 +2 x31 x82 -2 x31 x84 +2 x31 x85 +2 x31 x86 -2 x31 x88 -2 x31 x89 -2 x31 x90 -2 x32 x46 +9 x32 -2 x32 x47 -2 x32 x49 -2 x32 x50 -2 x32 x51 -2 x32 x52 -2 x32 x53 -2 x32 x54 -2 x32 x55 -2 x32 x56 -2 x32 x59 -2 x32 x60 -2 x32 x61 -2 x32 x62 -2 x32 x63 -2 x32 x64 +2 x32 x67 -2 x32 x68 +2 x32 x71 +2 x32 x72 +2 x32 x73 +2 x32 x75 +2 x32 x76 +2 x32 x77 +2 x32 x78 +2 x32 x80 +2 x32 x82 -2 x32 x83 +2 x32 x85 -2 x32 x86 -2 x32 x88 -2 x32 x89 +2 x32 x90 -2 x33 x47 +2 x33 -2 x33 x50 -2 x33 x52 -2 x33 x54 -2 x33 x56 -2 x33 x60 -2 x33 x62 -2 x33 x64 -2 x33 x65 +2 x33 x67 -2 x33 x70 -2 x33 x71 +2 x33 x73 +2 x33 x77 +2 x33 x78 +2 x33 x79 +2 x33 x80 +2 x33 x81 +2 x33 x82 +2 x33 x83 +2 x33 x84 +2 x33 x85 -2 x33 x88 -2 x33 x89 -2 x34 x46 +13 x34 -2 x34 x47 -2 x34 x49 -2 x34 x50 -2 x34 x51 -2 x34 x52 -2 x34 x53 -2 x34 x54 -2 x34 x55 -2 x34 x56 -2 x34 x59 -2 x34 x60 -2 x34 x61 -2 x34 x62 -2 x34 x66 +2 x34 x67 -2 x34 x72 +2 x34 x73 -2 x34 x77 +2 x34 x78 -2 x34 x81 +2 x34 x82 +2 x34 x85 +2 x34 x86 +2 x34 x87 -2 x34 x88 -2 x34 x89 -2 x35 x46 +2 x35 -2 x35 x49 -2 x35 x51 -2 x35 x53 -2 x35 x55 -2 x35 x59 -2 x35 x61 +2 x35 x63 +2 x35 x64 +2 x35 x65 +2 x35 x66 +2 x35 x67 +2 x35 x69 +2 x35 x73 -2 x35 x74 +2 x35 x78 -2 x35 x79 +2 x35 x82 -2 x35 x83 +2 x35 x85 -2 x35 x86 -2 x35 x88 -2 x35 x89 +2 x35 x90 +2 x36 x46 +1 x36 +2 x36 x48 -2 x36 x49 -2 x36 x50 -2 x36 x51 -2 x36 x52 -2 x36 x54 +2 x36 x55 -2 x36 x58 -2 x36 x59 -2 x36 x60 +2 x36 x61 -2 x36 x63 -2 x36 x64 -2 x36 x65 -2 x36 x67 -2 x36 x68 +2 x36 x71 +2 x36 x72 +2 x36 x73 +2 x36 x75 +2 x36 x76 +2 x36 x77 +2 x36 x78 +2 x36 x80 +2 x36 x81 -2 x36 x83 +2 x36 x84 -2 x36 x85 -2 x36 x86 -2 x36 x88 +2 x36 x89 +2 x36 x90 +2 x37 x46 -5 x37 +2 x37 x48 +2 x37 x49 -2 x37 x50 -2 x37 x52 -2 x37 x54 +2 x37 x55 +2 x37 x57 -2 x37 x58 +2 x37 x59 -2 x37 x60 +2 x37 x61 -2 x37 x63 -2 x37 x64 -2 x37 x65 -2 x37 x67 -2 x37 x68 -2 x37 x70 -2 x37 x71 +2 x37 x72 +2 x37 x75 +2 x37 x77 +2 x37 x78 +2 x37 x79 +2 x37 x80 +2 x37 x81 +2 x37 x82 +2 x37 x83 +2 x37 x84 -2 x37 x85 -2 x37 x86 +2 x37 x89 +2 x37 x90 +2 x38 x46 +2 x38 +2 x38 x48 -2 x38 x50 -2 x38 x52 -2 x38 x54 -2 x38 x58 -2 x38 x60 +2 x38 x61 -2 x38 x63 -2 x38 x64 -2 x38 x65 -2 x38 x67 -2 x38 x68 +2 x38 x75 +2 x38 x80 +2 x38 x84 +2 x38 x89 +2 x38 x90 +2 x39 x55 -3 x39 -2 x39 x59 +2 x39 x61 +2 x39 x72 -2 x39 x74 +2 x39 x75 +2 x39 x77 -2 x39 x79 +2 x39 x80 +2 x39 x81 -2 x39 x83 +2 x39 x84 -2 x39 x85 -2 x39 x86 -2 x39 x88 +2 x39 x89 +2 x39 x90 +2 x40 x46 -10 x40 +2 x40 x48 +2 x40 x49 +2 x40 x50 -2 x40 x54 +2 x40 x55 +2 x40 x57 +2 x40 x59 +2 x40 x60 +2 x40 x61 +2 x40 x63 -2 x40 x65 +2 x40 x68 -2 x40 x71 -2 x40 x72 -2 x40 x73 -2 x40 x75 +2 x40 x81 +2 x40 x82 +2 x40 x83 +2 x40 x84 +2 x40 x86 +2 x40 x88 -2 x40 x90 +2 x41 x49 -1 x41 +2 x41 x50 +2 x41 x51 +2 x41 x52 -2 x41 x55 -2 x41 x56 +2 x41 x59 +2 x41 x60 +2 x41 x63 +2 x41 x64 -2 x41 x66 +2 x41 x68 -2 x41 x71 -2 x41 x72 -2 x41 x73 -2 x41 x75 -2 x41 x76 -2 x41 x77 -2 x41 x78 -2 x41 x80 -2 x41 x81 +2 x41 x83 +2 x41 x85 +2 x41 x86 +2 x41 x87 +2 x41 x88 -2 x41 x90 -2 x42 x46 -4 x42 -2 x42 x48 +2 x42 x49 +2 x42 x50 +2 x42 x51 +2 x42 x52 +2 x42 x54 +2 x42 x56 +2 x42 x58 +2 x42 x62 +2 x42 x63 +2 x42 x64 +2 x42 x65 +2 x42 x66 +2 x42 x67 +2 x42 x69 -2 x42 x71 -2 x42 x72 -2 x42 x73 -2 x42 x75 -2 x42 x76 -2 x42 x77 -2 x42 x78 -2 x42 x80 -2 x43 x46 +9 x43 -2 x43 x48 -2 x43 x49 +2 x43 x52 +2 x43 x54 -2 x43 x55 -2 x43 x56 -2 x43 x57 -2 x43 x59 -2 x43 x61 +2 x43 x64 +2 x43 x65 -2 x43 x66 +2 x43 x70 +2 x43 x71 -2 x43 x72 -2 x43 x77 -2 x43 x78 -2 x43 x79 -2 x43 x80 -2 x43 x81 -2 x43 x82 -2 x43 x83 -2 x43 x84 +2 x43 x85 +2 x43 x86 +2 x43 x87 -2 x44 x46 +3 x44 -2 x44 x48 -2 x44 x49 +2 x44 x50 +2 x44 x52 +2 x44 x54 -2 x44 x55 +2 x44 x56 -2 x44 x57 +2 x44 x58 -2 x44 x59 -2 x44 x61 +2 x44 x62 +2 x44 x63 +2 x44 x64 +2 x44 x65 +2 x44 x66 +2 x44 x67 +2 x44 x69 +2 x44 x70 +2 x44 x71 -2 x44 x74 -2 x44 x77 -2 x44 x78 -2 x44 x79 -2 x44 x80 -2 x44 x81 -2 x44 x82 -2 x44 x83 -2 x44 x84 -2 x44 x86 -2 x44 x88 +2 x44 x90 -2 x45 x46 -7 x45 -2 x45 x48 +2 x45 x50 +2 x45 x52 +2 x45 x54 +2 x45 x55 +2 x45 x56 +2 x45 x58 -2 x45 x59 +2 x45 x62 +2 x45 x63 +2 x45 x64 +2 x45 x65 +2 x45 x66 +2 x45 x67 +2 x45 x69 +2 x45 x72 -2 x45 x74 +2 x45 x77 -2 x45 x79 +2 x45 x81 -2 x45 x83 -2 x45 x85 -2 x45 x86 -2 x45 x87 -2 x45 x88 +2 x45 x90 +1013 x91 ;
+1 x1 -1 x2 -1 x3 >= -1 ;
-1 x3 +1 x4 -1 x5 >= -1 ;
-1 x3 +1 x6 -1 x7 >= -1 ;
-1 x3 +1 x8 -1 x9 >= -1 ;
-1 x3 +1 x10 -1 x11 >= -1 ;
-1 x3 +1 x12 -1 x13 >= -1 ;
-1 x3 +1 x14 -1 x15 >= -1 ;
-1 x3 +1 x16 -1 x17 >= -1 ;
-1 x1 +1 x4 -1 x18 >= -1 ;
-1 x1 +1 x6 -1 x19 >= -1 ;
-1 x1 +1 x8 -1 x20 >= -1 ;
-1 x1 +1 x10 -1 x21 >= -1 ;
-1 x1 +1 x12 -1 x22 >= -1 ;
-1 x1 +1 x14 -1 x23 >= -1 ;
-1 x1 +1 x16 -1 x24 >= -1 ;
-1 x4 +1 x6 -1 x25 >= -1 ;
-1 x4 +1 x8 -1 x26 >= -1 ;
-1 x4 +1 x10 -1 x27 >= -1 ;
-1 x4 +1 x12 -1 x28 >= -1 ;
-1 x4 +1 x14 -1 x29 >= -1 ;
-1 x4 +1 x16 -1 x30 >= -1 ;
-1 x6 +1 x8 -1 x31 >= -1 ;
-1 x6 +1 x10 -1 x32 >= -1 ;
-1 x6 +1 x12 -1 x33 >= -1 ;
-1 x6 +1 x14 -1 x34 >= -1 ;
-1 x6 +1 x16 -1 x35 >= -1 ;
-1 x8 +1 x10 -1 x36 >= -1 ;
-1 x8 +1 x12 -1 x37 >= -1 ;
-1 x8 +1 x14 -1 x38 >= -1 ;
-1 x8 +1 x16 -1 x39 >= -1 ;
-1 x10 +1 x12 -1 x40 >= -1 ;
-1 x10 +1 x14 -1 x41 >= -1 ;
-1 x10 +1 x16 -1 x42 >= -1 ;
-1 x12 +1 x14 -1 x43 >= -1 ;
-1 x12 +1 x16 -1 x44 >= -1 ;
-1 x14 +1 x16 -1 x45 >= -1 ;
-1 x2 +1 x5 -1 x18 >= -1 ;
-1 x2 +1 x7 -1 x19 >= -1 ;
-1 x2 +1 x9 -1 x20 >= -1 ;
-1 x2 +1 x11 -1 x21 >= -1 ;
-1 x2 +1 x13 -1 x22 >= -1 ;
-1 x2 +1 x15 -1 x23 >= -1 ;
-1 x2 +1 x17 -1 x24 >= -1 ;
-1 x5 +1 x7 -1 x25 >= -1 ;
-1 x5 +1 x9 -1 x26 >= -1 ;
-1 x5 +1 x11 -1 x27 >= -1 ;
-1 x5 +1 x13 -1 x28 >= -1 ;
-1 x5 +1 x15 -1 x29 >= -1 ;
-1 x5 +1 x17 -1 x30 >= -1 ;
-1 x7 +1 x9 -1 x31 >= -1 ;
-1 x7 +1 x11 -1 x32 >= -1 ;
-1 x7 +1 x13 -1 x33 >= -1 ;
-1 x7 +1 x15 -1 x34 >= -1 ;
-1 x7 +1 x17 -1 x35 >= -1 ;
-1 x9 +1 x11 -1 x36 >= -1 ;
-1 x9 +1 x13 -1 x37 >= -1 ;
-1 x9 +1 x15 -1 x38 >= -1 ;
-1 x9 +1 x17 -1 x39 >= -1 ;
-1 x11 +1 x13 -1 x40 >= -1 ;
-1 x11 +1 x15 -1 x41 >= -1 ;
-1 x11 +1 x17 -1 x42 >= -1 ;
-1 x13 +1 x15 -1 x43 >= -1 ;
-1 x13 +1 x17 -1 x44 >= -1 ;
-1 x15 +1 x17 -1 x45 >= -1 ;
-1 x18 +1 x19 -1 x25 >= -1 ;
-1 x18 +1 x20 -1 x26 >= -1 ;
-1 x18 +1 x21 -1 x27 >= -1 ;
-1 x18 +1 x22 -1 x28 >= -1 ;
-1 x18 +1 x23 -1 x29 >= -1 ;
-1 x18 +1 x24 -1 x30 >= -1 ;
-1 x19 +1 x20 -1 x31 >= -1 ;
-1 x19 +1 x21 -1 x32 >= -1 ;
-1 x19 +1 x22 -1 x33 >= -1 ;
-1 x19 +1 x23 -1 x34 >= -1 ;
-1 x19 +1 x24 -1 x35 >= -1 ;
-1 x20 +1 x21 -1 x36 >= -1 ;
-1 x20 +1 x22 -1 x37 >= -1 ;
-1 x20 +1 x23 -1 x38 >= -1 ;
-1 x20 +1 x24 -1 x39 >= -1 ;
-1 x21 +1 x22 -1 x40 >= -1 ;
-1 x21 +1 x23 -1 x41 >= -1 ;
-1 x21 +1 x24 -1 x42 >= -1 ;
-1 x22 +1 x23 -1 x43 >= -1 ;
-1 x22 +1 x24 -1 x44 >= -1 ;
-1 x23 +1 x24 -1 x45 >= -1 ;
-1 x25 +1 x26 -1 x31 >= -1 ;
-1 x25 +1 x27 -1 x32 >= -1 ;
-1 x25 +1 x28 -1 x33 >= -1 ;
-1 x25 +1 x29 -1 x34 >= -1 ;
-1 x25 +1 x30 -1 x35 >= -1 ;
-1 x26 +1 x27 -1 x36 >= -1 ;
-1 x26 +1 x28 -1 x37 >= -1 ;
-1 x26 +1 x29 -1 x38 >= -1 ;
-1 x26 +1 x30 -1 x39 >= -1 ;
-1 x27 +1 x28 -1 x40 >= -1 ;
-1 x27 +1 x29 -1 x41 >= -1 ;
-1 x27 +1 x30 -1 x42 >= -1 ;
-1 x28 +1 x29 -1 x43 >= -1 ;
-1 x28 +1 x30 -1 x44 >= -1 ;
-1 x29 +1 x30 -1 x45 >= -1 ;
-1 x31 +1 x32 -1 x36 >= -1 ;
-1 x31 +1 x33 -1 x37 >= -1 ;
-1 x31 +1 x34 -1 x38 >= -1 ;
-1 x31 +1 x35 -1 x39 >= -1 ;
-1 x32 +1 x33 -1 x40 >= -1 ;
-1 x32 +1 x34 -1 x41 >= -1 ;
-1 x32 +1 x35 -1 x42 >= -1 ;
-1 x33 +1 x34 -1 x43 >= -1 ;
-1 x33 +1 x35 -1 x44 >= -1 ;
-1 x34 +1 x35 -1 x45 >= -1 ;
-1 x36 +1 x37 -1 x40 >= -1 ;
-1 x36 +1 x38 -1 x41 >= -1 ;
-1 x36 +1 x39 -1 x42 >= -1 ;
-1 x37 +1 x38 -1 x43 >= -1 ;
-1 x37 +1 x39 -1 x44 >= -1 ;
-1 x38 +1 x39 -1 x45 >= -1 ;
-1 x40 +1 x41 -1 x43 >= -1 ;
-1 x40 +1 x42 -1 x44 >= -1 ;
-1 x41 +1 x42 -1 x45 >= -1 ;
-1 x43 +1 x44 -1 x45 >= -1 ;
-1 x1 +1 x2 +1 x3 >= 0 ;
+1 x3 -1 x4 +1 x5 >= 0 ;
+1 x3 -1 x6 +1 x7 >= 0 ;
+1 x3 -1 x8 +1 x9 >= 0 ;
+1 x3 -1 x10 +1 x11 >= 0 ;
+1 x3 -1 x12 +1 x13 >= 0 ;
+1 x3 -1 x14 +1 x15 >= 0 ;
+1 x3 -1 x16 +1 x17 >= 0 ;
+1 x1 -1 x4 +1 x18 >= 0 ;
+1 x1 -1 x6 +1 x19 >= 0 ;
+1 x1 -1 x8 +1 x20 >= 0 ;
+1 x1 -1 x10 +1 x21 >= 0 ;
+1 x1 -1 x12 +1 x22 >= 0 ;
+1 x1 -1 x14 +1 x23 >= 0 ;
+1 x1 -1 x16 +1 x24 >= 0 ;
+1 x4 -1 x6 +1 x25 >= 0 ;
+1 x4 -1 x8 +1 x26 >= 0 ;
+1 x4 -1 x10 +1 x27 >= 0 ;
+1 x4 -1 x12 +1 x28 >= 0 ;
+1 x4 -1 x14 +1 x29 >= 0 ;
+1 x4 -1 x16 +1 x30 >= 0 ;
+1 x6 -1 x8 +1 x31 >= 0 ;
+1 x6 -1 x10 +1 x32 >= 0 ;
+1 x6 -1 x12 +1 x33 >= 0 ;
+1 x6 -1 x14 +1 x34 >= 0 ;
+1 x6 -1 x16 +1 x35 >= 0 ;
+1 x8 -1 x10 +1 x36 >= 0 ;
+1 x8 -1 x12 +1 x37 >= 0 ;
+1 x8 -1 x14 +1 x38 >= 0 ;
+1 x8 -1 x16 +1 x39 >= 0 ;
+1 x10 -1 x12 +1 x40 >= 0 ;
+1 x10 -1 x14 +1 x41 >= 0 ;
+1 x10 -1 x16 +1 x42 >= 0 ;
+1 x12 -1 x14 +1 x43 >= 0 ;
+1 x12 -1 x16 +1 x44 >= 0 ;
+1 x14 -1 x16 +1 x45 >= 0 ;
+1 x2 -1 x5 +1 x18 >= 0 ;
+1 x2 -1 x7 +1 x19 >= 0 ;
+1 x2 -1 x9 +1 x20 >= 0 ;
+1 x2 -1 x11 +1 x21 >= 0 ;
+1 x2 -1 x13 +1 x22 >= 0 ;
+1 x2 -1 x15 +1 x23 >= 0 ;
+1 x2 -1 x17 +1 x24 >= 0 ;
+1 x5 -1 x7 +1 x25 >= 0 ;
+1 x5 -1 x9 +1 x26 >= 0 ;
+1 x5 -1 x11 +1 x27 >= 0 ;
+1 x5 -1 x13 +1 x28 >= 0 ;
+1 x5 -1 x15 +1 x29 >= 0 ;
+1 x5 -1 x17 +1 x30 >= 0 ;
+1 x7 -1 x9 +1 x31 >= 0 ;
+1 x7 -1 x11 +1 x32 >= 0 ;
+1 x7 -1 x13 +1 x33 >= 0 ;
+1 x7 -1 x15 +1 x34 >= 0 ;
+1 x7 -1 x17 +1 x35 >= 0 ;
+1 x9 -1 x11 +1 x36 >= 0 ;
+1 x9 -1 x13 +1 x37 >= 0 ;
+1 x9 -1 x15 +1 x38 >= 0 ;
+1 x9 -1 x17 +1 x39 >= 0 ;
+1 x11 -1 x13 +1 x40 >= 0 ;
+1 x11 -1 x15 +1 x41 >= 0 ;
+1 x11 -1 x17 +1 x42 >= 0 ;
+1 x13 -1 x15 +1 x43 >= 0 ;
+1 x13 -1 x17 +1 x44 >= 0 ;
+1 x15 -1 x17 +1 x45 >= 0 ;
+1 x18 -1 x19 +1 x25 >= 0 ;
+1 x18 -1 x20 +1 x26 >= 0 ;
+1 x18 -1 x21 +1 x27 >= 0 ;
+1 x18 -1 x22 +1 x28 >= 0 ;
+1 x18 -1 x23 +1 x29 >= 0 ;
+1 x18 -1 x24 +1 x30 >= 0 ;
+1 x19 -1 x20 +1 x31 >= 0 ;
+1 x19 -1 x21 +1 x32 >= 0 ;
+1 x19 -1 x22 +1 x33 >= 0 ;
+1 x19 -1 x23 +1 x34 >= 0 ;
+1 x19 -1 x24 +1 x35 >= 0 ;
+1 x20 -1 x21 +1 x36 >= 0 ;
+1 x20 -1 x22 +1 x37 >= 0 ;
+1 x20 -1 x23 +1 x38 >= 0 ;
+1 x20 -1 x24 +1 x39 >= 0 ;
+1 x21 -1 x22 +1 x40 >= 0 ;
+1 x21 -1 x23 +1 x41 >= 0 ;
+1 x21 -1 x24 +1 x42 >= 0 ;
+1 x22 -1 x23 +1 x43 >= 0 ;
+1 x22 -1 x24 +1 x44 >= 0 ;
+1 x23 -1 x24 +1 x45 >= 0 ;
+1 x25 -1 x26 +1 x31 >= 0 ;
+1 x25 -1 x27 +1 x32 >= 0 ;
+1 x25 -1 x28 +1 x33 >= 0 ;
+1 x25 -1 x29 +1 x34 >= 0 ;
+1 x25 -1 x30 +1 x35 >= 0 ;
+1 x26 -1 x27 +1 x36 >= 0 ;
+1 x26 -1 x28 +1 x37 >= 0 ;
+1 x26 -1 x29 +1 x38 >= 0 ;
+1 x26 -1 x30 +1 x39 >= 0 ;
+1 x27 -1 x28 +1 x40 >= 0 ;
+1 x27 -1 x29 +1 x41 >= 0 ;
+1 x27 -1 x30 +1 x42 >= 0 ;
+1 x28 -1 x29 +1 x43 >= 0 ;
+1 x28 -1 x30 +1 x44 >= 0 ;
+1 x29 -1 x30 +1 x45 >= 0 ;
+1 x31 -1 x32 +1 x36 >= 0 ;
+1 x31 -1 x33 +1 x37 >= 0 ;
+1 x31 -1 x34 +1 x38 >= 0 ;
+1 x31 -1 x35 +1 x39 >= 0 ;
+1 x32 -1 x33 +1 x40 >= 0 ;
+1 x32 -1 x34 +1 x41 >= 0 ;
+1 x32 -1 x35 +1 x42 >= 0 ;
+1 x33 -1 x34 +1 x43 >= 0 ;
+1 x33 -1 x35 +1 x44 >= 0 ;
+1 x34 -1 x35 +1 x45 >= 0 ;
+1 x36 -1 x37 +1 x40 >= 0 ;
+1 x36 -1 x38 +1 x41 >= 0 ;
+1 x36 -1 x39 +1 x42 >= 0 ;
+1 x37 -1 x38 +1 x43 >= 0 ;
+1 x37 -1 x39 +1 x44 >= 0 ;
+1 x38 -1 x39 +1 x45 >= 0 ;
+1 x40 -1 x41 +1 x43 >= 0 ;
+1 x40 -1 x42 +1 x44 >= 0 ;
+1 x41 -1 x42 +1 x45 >= 0 ;
+1 x43 -1 x44 +1 x45 >= 0 ;
+1 x46 -1 x47 -1 x48 >= -1 ;
-1 x48 +1 x49 -1 x50 >= -1 ;
-1 x48 +1 x51 -1 x52 >= -1 ;
-1 x48 +1 x53 -1 x54 >= -1 ;
-1 x48 +1 x55 -1 x56 >= -1 ;
-1 x48 +1 x57 -1 x58 >= -1 ;
-1 x48 +1 x59 -1 x60 >= -1 ;
-1 x48 +1 x61 -1 x62 >= -1 ;
-1 x46 +1 x49 -1 x63 >= -1 ;
-1 x46 +1 x51 -1 x64 >= -1 ;
-1 x46 +1 x53 -1 x65 >= -1 ;
-1 x46 +1 x55 -1 x66 >= -1 ;
-1 x46 +1 x57 -1 x67 >= -1 ;
-1 x46 +1 x59 -1 x68 >= -1 ;
-1 x46 +1 x61 -1 x69 >= -1 ;
-1 x49 +1 x51 -1 x70 >= -1 ;
-1 x49 +1 x53 -1 x71 >= -1 ;
-1 x49 +1 x55 -1 x72 >= -1 ;
-1 x49 +1 x57 -1 x73 >= -1 ;
-1 x49 +1 x59 -1 x74 >= -1 ;
-1 x49 +1 x61 -1 x75 >= -1 ;
-1 x51 +1 x53 -1 x76 >= -1 ;
-1 x51 +1 x55 -1 x77 >= -1 ;
-1 x51 +1 x57 -1 x78 >= -1 ;
-1 x51 +1 x59 -1 x79 >= -1 ;
-1 x51 +1 x61 -1 x80 >= -1 ;
-1 x53 +1 x55 -1 x81 >= -1 ;
-1 x53 +1 x57 -1 x82 >= -1 ;
-1 x53 +1 x59 -1 x83 >= -1 ;
-1 x53 +1 x61 -1 x84 >= -1 ;
-1 x55 +1 x57 -1 x85 >= -1 ;
-1 x55 +1 x59 -1 x86 >= -1 ;
-1 x55 +1 x61 -1 x87 >= -1 ;
-1 x57 +1 x59 -1 x88 >= -1 ;
-1 x57 +1 x61 -1 x89 >= -1 ;
-1 x59 +1 x61 -1 x90 >= -1 ;
-1 x47 +1 x50 -1 x63 >= -1 ;
-1 x47 +1 x52 -1 x64 >= -1 ;
-1 x47 +1 x54 -1 x65 >= -1 ;
-1 x47 +1 x56 -1 x66 >= -1 ;
-1 x47 +1 x58 -1 x67 >= -1 ;
-1 x47 +1 x60 -1 x68 >= -1 ;
-1 x47 +1 x62 -1 x69 >= -1 ;
-1 x50 +1 x52 -1 x70 >= -1 ;
-1 x50 +1 x54 -1 x71 >= -1 ;
-1 x50 +1 x56 -1 x72 >= -1 ;
-1 x50 +1 x58 -1 x73 >= -1 ;
-1 x50 +1 x60 -1 x74 >= -1 ;
-1 x50 +1 x62 -1 x75 >= -1 ;
-1 x52 +1 x54 -1 x76 >= -1 ;
-1 x52 +1 x56 -1 x77 >= -1 ;
-1 x52 +1 x58 -1 x78 >= -1 ;
-1 x52 +1 x60 -1 x79 >= -1 ;
-1 x52 +1 x62 -1 x80 >= -1 ;
-1 x54 +1 x56 -1 x81 >= -1 ;
-1 x54 +1 x58 -1 x82 >= -1 ;
-1 x54 +1 x60 -1 x83 >= -1 ;
-1 x54 +1 x62 -1 x84 >= -1 ;
-1 x56 +1 x58 -1 x85 >= -1 ;
-1 x56 +1 x60 -1 x86 >= -1 ;
-1 x56 +1 x62 -1 x87 >= -1 ;
-1 x58 +1 x60 -1 x88 >= -1 ;
-1 x58 +1 x62 -1 x89 >= -1 ;
-1 x60 +1 x62 -1 x90 >= -1 ;
-1 x63 +1 x64 -1 x70 >= -1 ;
-1 x63 +1 x65 -1 x71 >= -1 ;
-1 x63 +1 x66 -1 x72 >= -1 ;
-1 x63 +1 x67 -1 x73 >= -1 ;
-1 x63 +1 x68 -1 x74 >= -1 ;
-1 x63 +1 x69 -1 x75 >= -1 ;
-1 x64 +1 x65 -1 x76 >= -1 ;
-1 x64 +1 x66 -1 x77 >= -1 ;
-1 x64 +1 x67 -1 x78 >= -1 ;
-1 x64 +1 x68 -1 x79 >= -1 ;
-1 x64 +1 x69 -1 x80 >= -1 ;
-1 x65 +1 x66 -1 x81 >= -1 ;
-1 x65 +1 x67 -1 x82 >= -1 ;
-1 x65 +1 x68 -1 x83 >= -1 ;
-1 x65 +1 x69 -1 x84 >= -1 ;
-1 x66 +1 x67 -1 x85 >= -1 ;
-1 x66 +1 x68 -1 x86 >= -1 ;
-1 x66 +1 x69 -1 x87 >= -1 ;
-1 x67 +1 x68 -1 x88 >= -1 ;
-1 x67 +1 x69 -1 x89 >= -1 ;
-1 x68 +1 x69 -1 x90 >= -1 ;
-1 x70 +1 x71 -1 x76 >= -1 ;
-1 x70 +1 x72 -1 x77 >= -1 ;
-1 x70 +1 x73 -1 x78 >= -1 ;
-1 x70 +1 x74 -1 x79 >= -1 ;
-1 x70 +1 x75 -1 x80 >= -1 ;
-1 x71 +1 x72 -1 x81 >= -1 ;
-1 x71 +1 x73 -1 x82 >= -1 ;
-1 x71 +1 x74 -1 x83 >= -1 ;
-1 x71 +1 x75 -1 x84 >= -1 ;
-1 x72 +1 x73 -1 x85 >= -1 ;
-1 x72 +1 x74 -1 x86 >= -1 ;
-1 x72 +1 x75 -1 x87 >= -1 ;
-1 x73 +1 x74 -1 x88 >= -1 ;
-1 x73 +1 x75 -1 x89 >= -1 ;
-1 x74 +1 x75 -1 x90 >= -1 ;
-1 x76 +1 x77 -1 x81 >= -1 ;
-1 x76 +1 x78 -1 x82 >= -1 ;
-1 x76 +1 x79 -1 x83 >= -1 ;
-1 x76 +1 x80 -1 x84 >= -1 ;
-1 x77 +1 x78 -1 x85 >= -1 ;
-1 x77 +1 x79 -1 x86 >= -1 ;
-1 x77 +1 x80 -1 x87 >= -1 ;
-1 x78 +1 x79 -1 x88 >= -1 ;
-1 x78 +1 x80 -1 x89 >= -1 ;
-1 x79 +1 x80 -1 x90 >= -1 ;
-1 x81 +1 x82 -1 x85 >= -1 ;
-1 x81 +1 x83 -1 x86 >= -1 ;
-1 x81 +1 x84 -1 x87 >= -1 ;
-1 x82 +1 x83 -1 x88 >= -1 ;
-1 x82 +1 x84 -1 x89 >= -1 ;
-1 x83 +1 x84 -1 x90 >= -1 ;
-1 x85 +1 x86 -1 x88 >= -1 ;
-1 x85 +1 x87 -1 x89 >= -1 ;
-1 x86 +1 x87 -1 x90 >= -1 ;
-1 x88 +1 x89 -1 x90 >= -1 ;
-1 x46 +1 x47 +1 x48 >= 0 ;
+1 x48 -1 x49 +1 x50 >= 0 ;
+1 x48 -1 x51 +1 x52 >= 0 ;
+1 x48 -1 x53 +1 x54 >= 0 ;
+1 x48 -1 x55 +1 x56 >= 0 ;
+1 x48 -1 x57 +1 x58 >= 0 ;
+1 x48 -1 x59 +1 x60 >= 0 ;
+1 x48 -1 x61 +1 x62 >= 0 ;
+1 x46 -1 x49 +1 x63 >= 0 ;
+1 x46 -1 x51 +1 x64 >= 0 ;
+1 x46 -1 x53 +1 x65 >= 0 ;
+1 x46 -1 x55 +1 x66 >= 0 ;
+1 x46 -1 x57 +1 x67 >= 0 ;
+1 x46 -1 x59 +1 x68 >= 0 ;
+1 x46 -1 x61 +1 x69 >= 0 ;
+1 x49 -1 x51 +1 x70 >= 0 ;
+1 x49 -1 x53 +1 x71 >= 0 ;
+1 x49 -1 x55 +1 x72 >= 0 ;
+1 x49 -1 x57 +1 x73 >= 0 ;
+1 x49 -1 x59 +1 x74 >= 0 ;
+1 x49 -1 x61 +1 x75 >= 0 ;
+1 x51 -1 x53 +1 x76 >= 0 ;
+1 x51 -1 x55 +1 x77 >= 0 ;
+1 x51 -1 x57 +1 x78 >= 0 ;
+1 x51 -1 x59 +1 x79 >= 0 ;
+1 x51 -1 x61 +1 x80 >= 0 ;
+1 x53 -1 x55 +1 x81 >= 0 ;
+1 x53 -1 x57 +1 x82 >= 0 ;
+1 x53 -1 x59 +1 x83 >= 0 ;
+1 x53 -1 x61 +1 x84 >= 0 ;
+1 x55 -1 x57 +1 x85 >= 0 ;
+1 x55 -1 x59 +1 x86 >= 0 ;
+1 x55 -1 x61 +1 x87 >= 0 ;
+1 x57 -1 x59 +1 x88 >= 0 ;
+1 x57 -1 x61 +1 x89 >= 0 ;
+1 x59 -1 x61 +1 x90 >= 0 ;
+1 x47 -1 x50 +1 x63 >= 0 ;
+1 x47 -1 x52 +1 x64 >= 0 ;
+1 x47 -1 x54 +1 x65 >= 0 ;
+1 x47 -1 x56 +1 x66 >= 0 ;
+1 x47 -1 x58 +1 x67 >= 0 ;
+1 x47 -1 x60 +1 x68 >= 0 ;
+1 x47 -1 x62 +1 x69 >= 0 ;
+1 x50 -1 x52 +1 x70 >= 0 ;
+1 x50 -1 x54 +1 x71 >= 0 ;
+1 x50 -1 x56 +1 x72 >= 0 ;
+1 x50 -1 x58 +1 x73 >= 0 ;
+1 x50 -1 x60 +1 x74 >= 0 ;
+1 x50 -1 x62 +1 x75 >= 0 ;
+1 x52 -1 x54 +1 x76 >= 0 ;
+1 x52 -1 x56 +1 x77 >= 0 ;
+1 x52 -1 x58 +1 x78 >= 0 ;
+1 x52 -1 x60 +1 x79 >= 0 ;
+1 x52 -1 x62 +1 x80 >= 0 ;
+1 x54 -1 x56 +1 x81 >= 0 ;
+1 x54 -1 x58 +1 x82 >= 0 ;
+1 x54 -1 x60 +1 x83 >= 0 ;
+1 x54 -1 x62 +1 x84 >= 0 ;
+1 x56 -1 x58 +1 x85 >= 0 ;
+1 x56 -1 x60 +1 x86 >= 0 ;
+1 x56 -1 x62 +1 x87 >= 0 ;
+1 x58 -1 x60 +1 x88 >= 0 ;
+1 x58 -1 x62 +1 x89 >= 0 ;
+1 x60 -1 x62 +1 x90 >= 0 ;
+1 x63 -1 x64 +1 x70 >= 0 ;
+1 x63 -1 x65 +1 x71 >= 0 ;
+1 x63 -1 x66 +1 x72 >= 0 ;
+1 x63 -1 x67 +1 x73 >= 0 ;
+1 x63 -1 x68 +1 x74 >= 0 ;
+1 x63 -1 x69 +1 x75 >= 0 ;
+1 x64 -1 x65 +1 x76 >= 0 ;
+1 x64 -1 x66 +1 x77 >= 0 ;
+1 x64 -1 x67 +1 x78 >= 0 ;
+1 x64 -1 x68 +1 x79 >= 0 ;
+1 x64 -1 x69 +1 x80 >= 0 ;
+1 x65 -1 x66 +1 x81 >= 0 ;
+1 x65 -1 x67 +1 x82 >= 0 ;
+1 x65 -1 x68 +1 x83 >= 0 ;
+1 x65 -1 x69 +1 x84 >= 0 ;
+1 x66 -1 x67 +1 x85 >= 0 ;
+1 x66 -1 x68 +1 x86 >= 0 ;
+1 x66 -1 x69 +1 x87 >= 0 ;
+1 x67 -1 x68 +1 x88 >= 0 ;
+1 x67 -1 x69 +1 x89 >= 0 ;
+1 x68 -1 x69 +1 x90 >= 0 ;
+1 x70 -1 x71 +1 x76 >= 0 ;
+1 x70 -1 x72 +1 x77 >= 0 ;
+1 x70 -1 x73 +1 x78 >= 0 ;
+1 x70 -1 x74 +1 x79 >= 0 ;
+1 x70 -1 x75 +1 x80 >= 0 ;
+1 x71 -1 x72 +1 x81 >= 0 ;
+1 x71 -1 x73 +1 x82 >= 0 ;
+1 x71 -1 x74 +1 x83 >= 0 ;
+1 x71 -1 x75 +1 x84 >= 0 ;
+1 x72 -1 x73 +1 x85 >= 0 ;
+1 x72 -1 x74 +1 x86 >= 0 ;
+1 x72 -1 x75 +1 x87 >= 0 ;
+1 x73 -1 x74 +1 x88 >= 0 ;
+1 x73 -1 x75 +1 x89 >= 0 ;
+1 x74 -1 x75 +1 x90 >= 0 ;
+1 x76 -1 x77 +1 x81 >= 0 ;
+1 x76 -1 x78 +1 x82 >= 0 ;
+1 x76 -1 x79 +1 x83 >= 0 ;
+1 x76 -1 x80 +1 x84 >= 0 ;
+1 x77 -1 x78 +1 x85 >= 0 ;
+1 x77 -1 x79 +1 x86 >= 0 ;
+1 x77 -1 x80 +1 x87 >= 0 ;
+1 x78 -1 x79 +1 x88 >= 0 ;
+1 x78 -1 x80 +1 x89 >= 0 ;
+1 x79 -1 x80 +1 x90 >= 0 ;
+1 x81 -1 x82 +1 x85 >= 0 ;
+1 x81 -1 x83 +1 x86 >= 0 ;
+1 x81 -1 x84 +1 x87 >= 0 ;
+1 x82 -1 x83 +1 x88 >= 0 ;
+1 x82 -1 x84 +1 x89 >= 0 ;
+1 x83 -1 x84 +1 x90 >= 0 ;
+1 x85 -1 x86 +1 x88 >= 0 ;
+1 x85 -1 x87 +1 x89 >= 0 ;
+1 x86 -1 x87 +1 x90 >= 0 ;
+1 x88 -1 x89 +1 x90 >= 0 ;
+1 x91 = 1 ;
